c Reduced graph for r05_0 generated by Cyril Grelier
p edge 142 1266
e 1 2
e 1 3
e 1 4
e 1 5
e 1 9
e 1 10
e 1 11
e 1 12
e 1 13
e 1 14
e 1 17
e 1 21
e 1 25
e 1 26
e 1 27
e 1 47
e 1 48
e 1 72
e 1 73
e 1 76
e 1 91
e 1 105
e 1 109
e 2 3
e 2 5
e 2 6
e 2 7
e 2 12
e 2 13
e 2 14
e 2 17
e 2 18
e 2 19
e 2 20
e 2 21
e 2 25
e 2 26
e 2 37
e 2 60
e 2 61
e 2 76
e 2 84
e 2 98
e 2 109
e 2 113
e 3 5
e 3 8
e 3 12
e 3 13
e 3 14
e 3 17
e 3 21
e 3 22
e 3 23
e 3 24
e 3 25
e 3 26
e 3 40
e 3 41
e 3 64
e 3 76
e 3 86
e 3 87
e 3 100
e 3 109
e 4 6
e 4 8
e 4 9
e 4 10
e 4 11
e 4 15
e 4 27
e 4 29
e 4 31
e 4 35
e 4 38
e 4 42
e 4 44
e 4 47
e 4 48
e 4 72
e 4 73
e 4 91
e 4 93
e 4 105
e 4 122
e 5 12
e 5 13
e 5 14
e 5 15
e 5 16
e 5 17
e 5 21
e 5 25
e 5 26
e 5 33
e 5 34
e 5 57
e 5 58
e 5 76
e 5 80
e 5 81
e 5 96
e 5 109
e 5 131
e 6 7
e 6 8
e 6 15
e 6 18
e 6 19
e 6 20
e 6 29
e 6 31
e 6 35
e 6 37
e 6 38
e 6 42
e 6 44
e 6 60
e 6 61
e 6 84
e 6 93
e 6 98
e 6 113
e 6 122
e 7 16
e 7 18
e 7 19
e 7 20
e 7 28
e 7 30
e 7 32
e 7 36
e 7 37
e 7 39
e 7 43
e 7 45
e 7 46
e 7 60
e 7 61
e 7 84
e 7 94
e 7 98
e 7 113
e 7 123
e 8 15
e 8 22
e 8 23
e 8 24
e 8 29
e 8 31
e 8 35
e 8 38
e 8 40
e 8 41
e 8 42
e 8 44
e 8 64
e 8 86
e 8 87
e 8 93
e 8 100
e 8 122
e 9 10
e 9 11
e 9 18
e 9 22
e 9 27
e 9 33
e 9 47
e 9 48
e 9 49
e 9 52
e 9 59
e 9 62
e 9 65
e 9 67
e 9 72
e 9 73
e 9 91
e 9 105
e 9 106
e 10 11
e 10 19
e 10 23
e 10 27
e 10 47
e 10 48
e 10 50
e 10 53
e 10 55
e 10 63
e 10 66
e 10 68
e 10 70
e 10 72
e 10 73
e 10 91
e 10 105
e 10 107
e 11 20
e 11 24
e 11 27
e 11 34
e 11 47
e 11 48
e 11 51
e 11 54
e 11 56
e 11 69
e 11 71
e 11 72
e 11 73
e 11 91
e 11 105
e 11 108
e 11 129
e 12 13
e 12 14
e 12 17
e 12 21
e 12 25
e 12 26
e 12 28
e 12 49
e 12 50
e 12 51
e 12 74
e 12 75
e 12 76
e 12 92
e 12 109
e 12 119
e 12 135
e 13 14
e 13 17
e 13 21
e 13 25
e 13 26
e 13 29
e 13 30
e 13 52
e 13 53
e 13 54
e 13 76
e 13 77
e 13 78
e 13 109
e 13 130
e 13 139
e 14 17
e 14 21
e 14 25
e 14 26
e 14 31
e 14 32
e 14 55
e 14 56
e 14 76
e 14 79
e 14 95
e 14 109
e 14 110
e 14 111
e 14 124
e 15 16
e 15 29
e 15 31
e 15 33
e 15 34
e 15 35
e 15 38
e 15 42
e 15 44
e 15 57
e 15 58
e 15 80
e 15 81
e 15 93
e 15 96
e 15 122
e 15 131
e 16 28
e 16 30
e 16 32
e 16 33
e 16 34
e 16 36
e 16 39
e 16 43
e 16 45
e 16 46
e 16 57
e 16 58
e 16 80
e 16 81
e 16 94
e 16 96
e 16 123
e 16 131
e 17 21
e 17 25
e 17 26
e 17 35
e 17 36
e 17 59
e 17 76
e 17 82
e 17 83
e 17 97
e 17 109
e 17 112
e 17 132
e 17 140
e 18 19
e 18 20
e 18 22
e 18 33
e 18 37
e 18 49
e 18 52
e 18 59
e 18 60
e 18 61
e 18 62
e 18 65
e 18 67
e 18 84
e 18 98
e 18 106
e 18 113
e 19 20
e 19 23
e 19 37
e 19 50
e 19 53
e 19 55
e 19 60
e 19 61
e 19 63
e 19 66
e 19 68
e 19 70
e 19 84
e 19 98
e 19 107
e 19 113
e 20 24
e 20 34
e 20 37
e 20 51
e 20 54
e 20 56
e 20 60
e 20 61
e 20 69
e 20 71
e 20 84
e 20 98
e 20 108
e 20 113
e 20 129
e 21 25
e 21 26
e 21 38
e 21 39
e 21 62
e 21 63
e 21 76
e 21 85
e 21 99
e 21 109
e 21 114
e 21 115
e 21 133
e 22 23
e 22 24
e 22 33
e 22 40
e 22 41
e 22 49
e 22 52
e 22 59
e 22 62
e 22 64
e 22 65
e 22 67
e 22 86
e 22 87
e 22 100
e 22 106
e 23 24
e 23 40
e 23 41
e 23 50
e 23 53
e 23 55
e 23 63
e 23 64
e 23 66
e 23 68
e 23 70
e 23 86
e 23 87
e 23 100
e 23 107
e 24 34
e 24 40
e 24 41
e 24 51
e 24 54
e 24 56
e 24 64
e 24 69
e 24 71
e 24 86
e 24 87
e 24 100
e 24 108
e 24 129
e 25 26
e 25 44
e 25 45
e 25 67
e 25 68
e 25 69
e 25 76
e 25 89
e 25 102
e 25 109
e 25 141
e 26 46
e 26 70
e 26 71
e 26 76
e 26 90
e 26 103
e 26 104
e 26 109
e 26 118
e 26 134
e 27 41
e 27 47
e 27 48
e 27 58
e 27 72
e 27 73
e 27 75
e 27 78
e 27 79
e 27 83
e 27 85
e 27 91
e 27 105
e 27 121
e 27 138
e 28 30
e 28 32
e 28 36
e 28 39
e 28 43
e 28 45
e 28 46
e 28 49
e 28 50
e 28 51
e 28 74
e 28 75
e 28 92
e 28 94
e 28 119
e 28 123
e 28 135
e 29 30
e 29 31
e 29 35
e 29 38
e 29 42
e 29 44
e 29 52
e 29 53
e 29 54
e 29 77
e 29 78
e 29 93
e 29 122
e 29 130
e 29 139
e 30 32
e 30 36
e 30 39
e 30 43
e 30 45
e 30 46
e 30 52
e 30 53
e 30 54
e 30 77
e 30 78
e 30 94
e 30 123
e 30 130
e 30 139
e 31 32
e 31 35
e 31 38
e 31 42
e 31 44
e 31 55
e 31 56
e 31 79
e 31 93
e 31 95
e 31 110
e 31 111
e 31 122
e 31 124
e 32 36
e 32 39
e 32 43
e 32 45
e 32 46
e 32 55
e 32 56
e 32 79
e 32 94
e 32 95
e 32 110
e 32 111
e 32 123
e 32 124
e 33 34
e 33 49
e 33 52
e 33 57
e 33 58
e 33 59
e 33 62
e 33 65
e 33 67
e 33 80
e 33 81
e 33 96
e 33 106
e 33 131
e 34 51
e 34 54
e 34 56
e 34 57
e 34 58
e 34 69
e 34 71
e 34 80
e 34 81
e 34 96
e 34 108
e 34 129
e 34 131
e 35 36
e 35 38
e 35 42
e 35 44
e 35 59
e 35 82
e 35 83
e 35 93
e 35 97
e 35 112
e 35 122
e 35 132
e 35 140
e 36 39
e 36 43
e 36 45
e 36 46
e 36 59
e 36 82
e 36 83
e 36 94
e 36 97
e 36 112
e 36 123
e 36 132
e 36 140
e 37 40
e 37 57
e 37 60
e 37 61
e 37 74
e 37 77
e 37 82
e 37 84
e 37 88
e 37 89
e 37 90
e 37 98
e 37 113
e 37 120
e 38 39
e 38 42
e 38 44
e 38 62
e 38 63
e 38 85
e 38 93
e 38 99
e 38 114
e 38 115
e 38 122
e 38 133
e 39 43
e 39 45
e 39 46
e 39 62
e 39 63
e 39 85
e 39 94
e 39 99
e 39 114
e 39 115
e 39 123
e 39 133
e 40 41
e 40 57
e 40 64
e 40 74
e 40 77
e 40 82
e 40 86
e 40 87
e 40 88
e 40 89
e 40 90
e 40 100
e 40 120
e 41 58
e 41 64
e 41 75
e 41 78
e 41 79
e 41 83
e 41 85
e 41 86
e 41 87
e 41 100
e 41 121
e 41 138
e 42 43
e 42 44
e 42 65
e 42 66
e 42 88
e 42 93
e 42 101
e 42 116
e 42 117
e 42 122
e 42 125
e 43 45
e 43 46
e 43 65
e 43 66
e 43 88
e 43 94
e 43 101
e 43 116
e 43 117
e 43 123
e 43 125
e 44 45
e 44 67
e 44 68
e 44 69
e 44 89
e 44 93
e 44 102
e 44 122
e 44 141
e 45 46
e 45 67
e 45 68
e 45 69
e 45 89
e 45 94
e 45 102
e 45 123
e 45 141
e 46 70
e 46 71
e 46 90
e 46 94
e 46 103
e 46 104
e 46 118
e 46 123
e 46 134
e 47 48
e 47 60
e 47 64
e 47 72
e 47 73
e 47 80
e 47 91
e 47 92
e 47 95
e 47 97
e 47 103
e 47 105
e 47 126
e 48 61
e 48 72
e 48 73
e 48 81
e 48 91
e 48 99
e 48 101
e 48 102
e 48 104
e 48 105
e 48 127
e 48 128
e 49 50
e 49 51
e 49 52
e 49 59
e 49 62
e 49 65
e 49 67
e 49 74
e 49 75
e 49 92
e 49 106
e 49 119
e 49 135
e 50 51
e 50 53
e 50 55
e 50 63
e 50 66
e 50 68
e 50 70
e 50 74
e 50 75
e 50 92
e 50 107
e 50 119
e 50 135
e 51 54
e 51 56
e 51 69
e 51 71
e 51 74
e 51 75
e 51 92
e 51 108
e 51 119
e 51 129
e 51 135
e 52 53
e 52 54
e 52 59
e 52 62
e 52 65
e 52 67
e 52 77
e 52 78
e 52 106
e 52 130
e 52 139
e 53 54
e 53 55
e 53 63
e 53 66
e 53 68
e 53 70
e 53 77
e 53 78
e 53 107
e 53 130
e 53 139
e 54 56
e 54 69
e 54 71
e 54 77
e 54 78
e 54 108
e 54 129
e 54 130
e 54 139
e 55 56
e 55 63
e 55 66
e 55 68
e 55 70
e 55 79
e 55 95
e 55 107
e 55 110
e 55 111
e 55 124
e 56 69
e 56 71
e 56 79
e 56 95
e 56 108
e 56 110
e 56 111
e 56 124
e 56 129
e 57 58
e 57 74
e 57 77
e 57 80
e 57 81
e 57 82
e 57 88
e 57 89
e 57 90
e 57 96
e 57 120
e 57 131
e 58 75
e 58 78
e 58 79
e 58 80
e 58 81
e 58 83
e 58 85
e 58 96
e 58 121
e 58 131
e 58 138
e 59 62
e 59 65
e 59 67
e 59 82
e 59 83
e 59 97
e 59 106
e 59 112
e 59 132
e 59 140
e 60 61
e 60 64
e 60 80
e 60 84
e 60 92
e 60 95
e 60 97
e 60 98
e 60 103
e 60 113
e 60 126
e 61 81
e 61 84
e 61 98
e 61 99
e 61 101
e 61 102
e 61 104
e 61 113
e 61 127
e 61 128
e 62 63
e 62 65
e 62 67
e 62 85
e 62 99
e 62 106
e 62 114
e 62 115
e 62 133
e 63 66
e 63 68
e 63 70
e 63 85
e 63 99
e 63 107
e 63 114
e 63 115
e 63 133
e 64 80
e 64 86
e 64 87
e 64 92
e 64 95
e 64 97
e 64 100
e 64 103
e 64 126
e 65 66
e 65 67
e 65 88
e 65 101
e 65 106
e 65 116
e 65 117
e 65 125
e 66 68
e 66 70
e 66 88
e 66 101
e 66 107
e 66 116
e 66 117
e 66 125
e 67 68
e 67 69
e 67 89
e 67 102
e 67 106
e 67 141
e 68 69
e 68 70
e 68 89
e 68 102
e 68 107
e 68 141
e 69 71
e 69 89
e 69 102
e 69 108
e 69 129
e 69 141
e 70 71
e 70 90
e 70 103
e 70 104
e 70 107
e 70 118
e 70 134
e 71 90
e 71 103
e 71 104
e 71 108
e 71 118
e 71 129
e 71 134
e 72 73
e 72 86
e 72 91
e 72 96
e 72 105
e 72 110
e 72 112
e 72 114
e 72 116
e 72 136
e 73 84
e 73 87
e 73 91
e 73 105
e 73 111
e 73 115
e 73 117
e 73 118
e 73 137
e 74 75
e 74 77
e 74 82
e 74 88
e 74 89
e 74 90
e 74 92
e 74 119
e 74 120
e 74 135
e 75 78
e 75 79
e 75 83
e 75 85
e 75 92
e 75 119
e 75 121
e 75 135
e 75 138
e 76 93
e 76 106
e 76 107
e 76 109
e 76 126
e 76 127
e 76 142
e 77 78
e 77 82
e 77 88
e 77 89
e 77 90
e 77 120
e 77 130
e 77 139
e 78 79
e 78 83
e 78 85
e 78 121
e 78 130
e 78 138
e 78 139
e 79 83
e 79 85
e 79 95
e 79 110
e 79 111
e 79 121
e 79 124
e 79 138
e 80 81
e 80 92
e 80 95
e 80 96
e 80 97
e 80 103
e 80 126
e 80 131
e 81 96
e 81 99
e 81 101
e 81 102
e 81 104
e 81 127
e 81 128
e 81 131
e 82 83
e 82 88
e 82 89
e 82 90
e 82 97
e 82 112
e 82 120
e 82 132
e 82 140
e 83 85
e 83 97
e 83 112
e 83 121
e 83 132
e 83 138
e 83 140
e 84 87
e 84 98
e 84 111
e 84 113
e 84 115
e 84 117
e 84 118
e 84 137
e 85 99
e 85 114
e 85 115
e 85 121
e 85 133
e 85 138
e 86 87
e 86 96
e 86 100
e 86 110
e 86 112
e 86 114
e 86 116
e 86 136
e 87 100
e 87 111
e 87 115
e 87 117
e 87 118
e 87 137
e 88 89
e 88 90
e 88 101
e 88 116
e 88 117
e 88 120
e 88 125
e 89 90
e 89 102
e 89 120
e 89 141
e 90 103
e 90 104
e 90 118
e 90 120
e 90 134
e 91 98
e 91 100
e 91 105
e 91 119
e 91 124
e 91 125
e 91 142
e 92 95
e 92 97
e 92 103
e 92 119
e 92 126
e 92 135
e 93 106
e 93 107
e 93 122
e 93 126
e 93 127
e 93 142
e 94 108
e 94 120
e 94 121
e 94 123
e 94 128
e 94 136
e 94 137
e 95 97
e 95 103
e 95 110
e 95 111
e 95 124
e 95 126
e 96 110
e 96 112
e 96 114
e 96 116
e 96 131
e 96 136
e 97 103
e 97 112
e 97 126
e 97 132
e 97 140
e 98 100
e 98 113
e 98 119
e 98 124
e 98 125
e 98 142
e 99 101
e 99 102
e 99 104
e 99 114
e 99 115
e 99 127
e 99 128
e 99 133
e 100 119
e 100 124
e 100 125
e 100 142
e 101 102
e 101 104
e 101 116
e 101 117
e 101 125
e 101 127
e 101 128
e 102 104
e 102 127
e 102 128
e 102 141
e 103 104
e 103 118
e 103 126
e 103 134
e 104 118
e 104 127
e 104 128
e 104 134
e 105 113
e 105 130
e 105 132
e 105 133
e 105 134
e 106 107
e 106 126
e 106 127
e 106 142
e 107 126
e 107 127
e 107 142
e 108 120
e 108 121
e 108 128
e 108 129
e 108 136
e 108 137
e 109 122
e 109 123
e 109 129
e 109 138
e 110 111
e 110 112
e 110 114
e 110 116
e 110 124
e 110 136
e 111 115
e 111 117
e 111 118
e 111 124
e 111 137
e 112 114
e 112 116
e 112 132
e 112 136
e 112 140
e 113 130
e 113 132
e 113 133
e 113 134
e 114 115
e 114 116
e 114 133
e 114 136
e 115 117
e 115 118
e 115 133
e 115 137
e 116 117
e 116 125
e 116 136
e 117 118
e 117 125
e 117 137
e 118 134
e 118 137
e 119 124
e 119 125
e 119 135
e 119 142
e 120 121
e 120 128
e 120 136
e 120 137
e 121 128
e 121 136
e 121 137
e 121 138
e 122 123
e 122 129
e 122 138
e 123 129
e 123 138
e 124 125
e 124 142
e 125 142
e 126 127
e 126 142
e 127 128
e 127 142
e 128 136
e 128 137
e 129 138
e 130 132
e 130 133
e 130 134
e 130 139
e 131 135
e 131 139
e 131 140
e 131 141
e 132 133
e 132 134
e 132 140
e 133 134
e 135 139
e 135 140
e 135 141
e 136 137
e 139 140
e 139 141
e 140 141
